objective value:                                  -11
t_n_6                                               1 	(obj:-1)
t_n_346                                             1 	(obj:-1)
t_n_471                                             1 	(obj:-1)
t_n_509                                             1 	(obj:-1)
t_n_548                                             1 	(obj:-1)
t_n_601                                             1 	(obj:-1)
t_n_611                                             1 	(obj:-1)
t_n_836                                             1 	(obj:-1)
t_n_850                                             1 	(obj:-1)
t_n_861                                             1 	(obj:-1)
t_n_953                                             1 	(obj:-1)
